NAME : algo2ex
COMMENT : Problem points are scaled up by 100 to avoid rounding errors
TYPE : TSP
DIMENSION : 25
EDGE_WEIGHT_TYPE : EUC_2D
NODE_COORD_TYPE : TWOD_COORDS
NODE_COORD_SECTION
   1  2083333.33       1710000.00
   2  2090000.00       1706666.67
   3  2130000.00       1301666.67
   4  2160000.00       1415000.00
   5  2160000.00       1496666.67
   6  2160000.00       1650000.00
   7  2218333.33       1313333.33
   8  2258333.33       1430000.00
   9  2268333.33       1271666.67
  10  2361666.67       1586666.67
  11  2370000.00       1593333.33
  12  2388333.33       1453333.33
  13  2416666.67       1325000.00
  14  2514916.67       1236583.33
  15  2613333.33       1450000.00
  16  2615000.00       1055000.00
  17  2628333.33       1276666.67
  18  2643333.33       1343333.33
  19  2655000.00       1385000.00
  20  2673333.33       1168333.33
  21  2702611.11       1305194.44
  22  2709611.11       1341583.33
  23  2715361.11       1320333.33
  24  2716666.67       983333.33
  25  2723333.33       1045000.00
EOF
